
Gurobi 11.0.2 (linux64) logging started Tue 03 Dec 2024 09:00:56 AM CET

Set parameter LogFile to value "./res/knapPI_11_20_1000/knapPI_11_20_1000_67/grb_dom.log"
Set parameter Presolve to value 0
Set parameter Aggregate to value 0
Set parameter Heuristics to value 0
Set parameter LPWarmStart to value 0
Set parameter NLPHeur to value 0
Set parameter PreDepRow to value 0
Set parameter PreDual to value 0
Set parameter RINS to value 0
Set parameter Symmetry to value 0
Set parameter NodeLimit to value 1
Set parameter Threads to value 1

Gurobi 11.0.2 (linux64) logging started Tue 03 Dec 2024 09:00:56 AM CET

Set parameter LogFile to value "./res/knapPI_11_20_1000/knapPI_11_20_1000_67/grb_dom.log"
Set parameter NLPHeur to value 0
Set parameter LPWarmStart to value 0
Set parameter PreDepRow to value 0
Set parameter Symmetry to value 0
Set parameter Presolve to value 0
Gurobi Optimizer version 11.0.2 build v11.0.2rc0 (linux64 - "Pop!_OS 20.04 LTS")

CPU model: Intel(R) Core(TM) i7-8650U CPU @ 1.90GHz, instruction set [SSE2|AVX|AVX2]
Thread count: 4 physical cores, 4 logical processors, using up to 1 threads

Optimize a model with 710 rows, 20 columns and 3634 nonzeros
Model fingerprint: 0x943cbbd3
Variable types: 0 continuous, 20 integer (20 binary)
Coefficient statistics:
  Matrix range     [1e+00, 2e+03]
  Objective range  [9e+00, 5e+02]
  Bounds range     [0e+00, 0e+00]
  RHS range        [8e+03, 8e+03]
Variable types: 0 continuous, 20 integer (20 binary)

Root relaxation: objective 2.748041e+03, 19 iterations, 0.00 seconds (0.00 work units)

    Nodes    |    Current Node    |     Objective Bounds      |     Work
 Expl Unexpl |  Obj  Depth IntInf | Incumbent    BestBd   Gap | It/Node Time

     0     0 2748.04124    0    1          - 2748.04124      -     -    0s
     0     0 2748.04124    0    1          - 2748.04124      -     -    0s
     0     0 2735.27731    0    3          - 2735.27731      -     -    0s
     0     0 2735.27731    0    3          - 2735.27731      -     -    0s
     0     0 2707.04651    0    1          - 2707.04651      -     -    0s
     0     0 2707.04651    0    2          - 2707.04651      -     -    0s
     0     0 2707.04651    0    4          - 2707.04651      -     -    0s
     0     0 2707.04651    0    5          - 2707.04651      -     -    0s
     0     0 2706.56250    0    3          - 2706.56250      -     -    0s
     0     0 2706.56250    0    3          - 2706.56250      -     -    0s
     0     0 2706.48509    0    4          - 2706.48509      -     -    0s
     0     0 2706.48509    0    6          - 2706.48509      -     -    0s
     0     0 2706.48509    0    4          - 2706.48509      -     -    0s
     0     0 2706.48509    0    5          - 2706.48509      -     -    0s
*    0     0               0    2706.0000000 2706.00000  0.00%     -    0s

Cutting planes:
  Cover: 1
  MIR: 4
  StrongCG: 2
  RLT: 1

Explored 1 nodes (50 simplex iterations) in 0.09 seconds (0.03 work units)
Thread count was 1 (of 4 available processors)

Solution count 1: 2706 

Optimal solution found (tolerance 1.00e-04)
Best objective 2.706000000000e+03, best bound 2.706000000000e+03, gap 0.0000%

User-callback calls 152, time in user-callback 0.00 sec
opt = true
obj = 2706.0
nb_dom_cuts = 709
solved_time = 0.0884
opt_val = 2706.0
